output ((["A:\n"]++[show(A[i,j])++if j==n then "\n" else " " endif | i,j in 1..n])++["\nB:\n"])++[show(B[i,j])++if j==n then "\n" else " " endif | i,j in 1..n];
int: n = 8;
array [1..n,1..n] of int: A;
array [1..n,1..n] of int: B;
